\* Source Pyomo model name=unknown *\

min 
x199:
+492.39055000000002 x102
+492.39055000000002 x105
+492.39055000000002 x108
+492.39055000000002 x111
+492.39055000000002 x114
+492.39055000000002 x118
+492.39055000000002 x119
+492.39055000000002 x124
+492.39055000000002 x125
+492.39055000000002 x134
+492.39055000000002 x137
+492.39055000000002 x140
+492.39055000000002 x143
+492.39055000000002 x146
-5 x41
-5 x42
-5 x43
-5 x44
-5 x45
-5 x46
-5 x47
-5 x48
-5 x49
-5 x50
-5 x51
-5 x52
-5 x53
-5 x54
-5 x55
-5 x56
-5 x57
-5 x58
-5 x59
-5 x60

s.t.

c_e_x200_:
+1 x101
+1 x102
+1 x103
-1 x155
= 0

c_e_x201_:
-1 x101
+1 x104
+1 x105
+1 x106
= 0

c_e_x202_:
-1 x104
+1 x107
+1 x108
+1 x109
= 0

c_e_x203_:
-1 x107
+1 x110
+1 x111
+1 x112
= 0

c_e_x204_:
-1 x110
+1 x113
+1 x114
+1 x115
-1 x134
= 0

c_e_x205_:
-1 x113
+1 x116
+1 x118
+1 x120
-1 x137
= 0

c_e_x206_:
+1 x117
+1 x119
+1 x121
-1 x156
= 0

c_e_x207_:
-1 x116
+1 x122
+1 x124
+1 x126
-1 x140
= 0

c_e_x208_:
-1 x117
+1 x123
+1 x125
+1 x127
= 0

c_e_x209_:
-1 x122
+1 x128
+1 x130
-1 x143
= 0

c_e_x210_:
-1 x123
+1 x129
+1 x131
= 0

c_e_x211_:
-1 x128
+1 x132
-1 x146
= 0

c_e_x212_:
-1 x129
+1 x133
= 0

c_e_x213_:
-1 x102
+1 x134
+1 x135
+1 x136
= 0

c_e_x214_:
-1 x105
-1 x135
+1 x137
+1 x138
+1 x139
= 0

c_e_x215_:
-1 x108
-1 x138
+1 x140
+1 x141
+1 x142
= 0

c_e_x216_:
-1 x111
-1 x141
+1 x143
+1 x144
+1 x145
= 0

c_e_x217_:
-1 x114
-1 x144
+1 x146
+1 x147
+1 x148
= 0

c_e_x218_:
-1 x118
-1 x147
+1 x149
+1 x151
= 0

c_e_x219_:
-1 x119
+1 x150
+1 x152
= 0

c_e_x220_:
-1 x124
-1 x149
+1 x153
= 0

c_e_x221_:
-1 x125
-1 x150
+1 x154
= 0

c_e_x222_:
+1 x155
+1 x157
= 1

c_e_x223_:
+1 x156
+1 x158
= 1

c_e_x224_:
+1 x103
+1 x106
+1 x109
+1 x112
+1 x115
+1 x120
+1 x126
+1 x130
+1 x132
+1 x136
+1 x139
+1 x142
+1 x145
+1 x148
+1 x151
+1 x153
+1 x157
= 1

c_e_x225_:
+1 x121
+1 x127
+1 x131
+1 x133
+1 x152
+1 x154
+1 x158
= 1

c_e_x226_:
-1 x1
+1 x21
+1 x22
+1 x61
= 297

c_e_x227_:
-1 x2
+1 x23
+1 x24
-1 x61
+1 x62
= 0

c_e_x228_:
+1 x25
+1 x26
-1 x3
-1 x62
+1 x63
= 0

c_e_x229_:
+1 x27
+1 x28
-1 x4
-1 x63
+1 x64
= 0

c_e_x230_:
+1 x29
+1 x30
-1 x5
-1 x64
+1 x65
= 0

c_e_x231_:
+1 x31
+1 x32
-1 x6
-1 x65
+1 x66
= 0

c_e_x232_:
+1 x33
+1 x34
-1 x66
+1 x67
-1 x7
= 0

c_e_x233_:
+1 x35
+1 x36
-1 x67
+1 x68
-1 x8
= 0

c_e_x234_:
+1 x37
+1 x38
-1 x68
+1 x69
-1 x9
= 0

c_e_x235_:
-1 x10
+1 x39
+1 x40
-1 x69
+1 x70
= 0

c_e_x236_:
+1 x11
-1 x41
-1 x42
+1 x71
= 168

c_e_x237_:
+1 x12
-1 x43
-1 x44
-1 x71
+1 x72
= 0

c_e_x238_:
+1 x13
-1 x45
-1 x46
-1 x72
+1 x73
= 0

c_e_x239_:
+1 x14
-1 x47
-1 x48
-1 x73
+1 x74
= 0

c_e_x240_:
+1 x15
-1 x49
-1 x50
-1 x74
+1 x75
= 0

c_e_x241_:
+1 x16
-1 x51
-1 x52
-1 x75
+1 x76
= 0

c_e_x242_:
+1 x17
-1 x53
-1 x54
-1 x76
+1 x77
= 0

c_e_x243_:
+1 x18
-1 x55
-1 x56
-1 x77
+1 x78
= 0

c_e_x244_:
+1 x19
-1 x57
-1 x58
-1 x78
+1 x79
= 0

c_e_x245_:
+1 x20
-1 x59
-1 x60
-1 x79
+1 x80
= 0

c_e_x246_:
-1 x21
+1 x41
+1 x81
= 300

c_e_x247_:
-1 x22
+1 x42
+1 x82
= 0

c_e_x248_:
-1 x23
+1 x43
-1 x81
+1 x83
= 0

c_e_x249_:
-1 x24
+1 x44
-1 x82
+1 x84
= 0

c_e_x250_:
-1 x25
+1 x45
-1 x83
+1 x85
= 0

c_e_x251_:
-1 x26
+1 x46
-1 x84
+1 x86
= 0

c_e_x252_:
-1 x27
+1 x47
-1 x85
+1 x87
= 0

c_e_x253_:
-1 x28
+1 x48
-1 x86
+1 x88
= 0

c_e_x254_:
-1 x29
+1 x49
-1 x87
+1 x89
= 0

c_e_x255_:
-1 x30
+1 x50
-1 x88
+1 x90
= 0

c_e_x256_:
-1 x31
+1 x51
-1 x89
+1 x91
= 0

c_e_x257_:
-1 x32
+1 x52
-1 x90
+1 x92
= 0

c_e_x258_:
-1 x33
+1 x53
-1 x91
+1 x93
= 0

c_e_x259_:
-1 x34
+1 x54
-1 x92
+1 x94
= 0

c_e_x260_:
-1 x35
+1 x55
-1 x93
+1 x95
= 0

c_e_x261_:
-1 x36
+1 x56
-1 x94
+1 x96
= 0

c_e_x262_:
-1 x37
+1 x57
-1 x95
+1 x97
= 0

c_e_x263_:
-1 x38
+1 x58
-1 x96
+1 x98
= 0

c_e_x264_:
-1 x39
+1 x59
-1 x97
+1 x99
= 0

c_e_x265_:
+1 x100
-1 x40
+1 x60
-1 x98
= 0

c_u_x266_:
+1 x159
+1 x160
<= 1

c_u_x267_:
+1 x161
+1 x162
<= 1

c_u_x268_:
+1 x163
+1 x164
<= 1

c_u_x269_:
+1 x165
+1 x166
<= 1

c_u_x270_:
+1 x167
+1 x168
<= 1

c_u_x271_:
+1 x169
+1 x170
<= 1

c_u_x272_:
+1 x171
+1 x172
<= 1

c_u_x273_:
+1 x173
+1 x174
<= 1

c_u_x274_:
+1 x175
+1 x176
<= 1

c_u_x275_:
+1 x177
+1 x178
<= 1

c_u_x276_:
+1 x179
+1 x180
<= 1

c_u_x277_:
+1 x181
+1 x182
<= 1

c_u_x278_:
+1 x183
+1 x184
<= 1

c_u_x279_:
+1 x185
+1 x186
<= 1

c_u_x280_:
+1 x187
+1 x188
<= 1

c_u_x281_:
+1 x189
+1 x190
<= 1

c_u_x282_:
+1 x191
+1 x192
<= 1

c_u_x283_:
+1 x193
+1 x194
<= 1

c_u_x284_:
+1 x195
+1 x196
<= 1

c_u_x285_:
+1 x197
+1 x198
<= 1

c_u_x286_:
+1 x159
<= 0

c_u_x287_:
+1 x160
<= 0

c_u_x288_:
-1 x155
+1 x161
<= 0

c_u_x289_:
+1 x162
<= 0

c_u_x290_:
-1 x101
+1 x163
<= 0

c_u_x291_:
+1 x164
<= 0

c_u_x292_:
-1 x104
+1 x165
<= 0

c_u_x293_:
+1 x166
<= 0

c_u_x294_:
-1 x107
+1 x167
<= 0

c_u_x295_:
+1 x168
<= 0

c_u_x296_:
-1 x110
-1 x134
+1 x169
<= 0

c_u_x297_:
+1 x170
<= 0

c_u_x298_:
-1 x113
-1 x137
+1 x171
<= 0

c_u_x299_:
-1 x156
+1 x172
<= 0

c_u_x300_:
-1 x116
-1 x140
+1 x173
<= 0

c_u_x301_:
-1 x117
+1 x174
<= 0

c_u_x302_:
-1 x122
-1 x143
+1 x175
<= 0

c_u_x303_:
-1 x123
+1 x176
<= 0

c_u_x304_:
-1 x128
-1 x146
+1 x177
<= 0

c_u_x305_:
-1 x129
+1 x178
<= 0

c_u_x306_:
+1 x179
<= 0

c_u_x307_:
+1 x180
<= 0

c_u_x308_:
+1 x181
<= 0

c_u_x309_:
+1 x182
<= 0

c_u_x310_:
+1 x183
<= 0

c_u_x311_:
+1 x184
<= 0

c_u_x312_:
-1 x102
+1 x185
<= 0

c_u_x313_:
+1 x186
<= 0

c_u_x314_:
-1 x105
-1 x135
+1 x187
<= 0

c_u_x315_:
+1 x188
<= 0

c_u_x316_:
-1 x108
-1 x138
+1 x189
<= 0

c_u_x317_:
+1 x190
<= 0

c_u_x318_:
-1 x111
-1 x141
+1 x191
<= 0

c_u_x319_:
+1 x192
<= 0

c_u_x320_:
-1 x114
-1 x144
+1 x193
<= 0

c_u_x321_:
+1 x194
<= 0

c_u_x322_:
-1 x118
-1 x147
+1 x195
<= 0

c_u_x323_:
-1 x119
+1 x196
<= 0

c_u_x324_:
-1 x124
-1 x149
+1 x197
<= 0

c_u_x325_:
-1 x125
-1 x150
+1 x198
<= 0

c_u_x326_:
+35 x159
-1 x21
<= 0

c_u_x327_:
+35 x160
-1 x22
<= 0

c_u_x328_:
+35 x161
-1 x23
<= 0

c_u_x329_:
+35 x162
-1 x24
<= 0

c_u_x330_:
+35 x163
-1 x25
<= 0

c_u_x331_:
+35 x164
-1 x26
<= 0

c_u_x332_:
+35 x165
-1 x27
<= 0

c_u_x333_:
+35 x166
-1 x28
<= 0

c_u_x334_:
+35 x167
-1 x29
<= 0

c_u_x335_:
+35 x168
-1 x30
<= 0

c_u_x336_:
+35 x169
-1 x31
<= 0

c_u_x337_:
+35 x170
-1 x32
<= 0

c_u_x338_:
+35 x171
-1 x33
<= 0

c_u_x339_:
+35 x172
-1 x34
<= 0

c_u_x340_:
+35 x173
-1 x35
<= 0

c_u_x341_:
+35 x174
-1 x36
<= 0

c_u_x342_:
+35 x175
-1 x37
<= 0

c_u_x343_:
+35 x176
-1 x38
<= 0

c_u_x344_:
+35 x177
-1 x39
<= 0

c_u_x345_:
+35 x178
-1 x40
<= 0

c_u_x346_:
+50 x179
-1 x41
<= 0

c_u_x347_:
+50 x180
-1 x42
<= 0

c_u_x348_:
+50 x181
-1 x43
<= 0

c_u_x349_:
+50 x182
-1 x44
<= 0

c_u_x350_:
+50 x183
-1 x45
<= 0

c_u_x351_:
+50 x184
-1 x46
<= 0

c_u_x352_:
+50 x185
-1 x47
<= 0

c_u_x353_:
+50 x186
-1 x48
<= 0

c_u_x354_:
+50 x187
-1 x49
<= 0

c_u_x355_:
+50 x188
-1 x50
<= 0

c_u_x356_:
+50 x189
-1 x51
<= 0

c_u_x357_:
+50 x190
-1 x52
<= 0

c_u_x358_:
+50 x191
-1 x53
<= 0

c_u_x359_:
+50 x192
-1 x54
<= 0

c_u_x360_:
+50 x193
-1 x55
<= 0

c_u_x361_:
+50 x194
-1 x56
<= 0

c_u_x362_:
+50 x195
-1 x57
<= 0

c_u_x363_:
+50 x196
-1 x58
<= 0

c_u_x364_:
+50 x197
-1 x59
<= 0

c_u_x365_:
+50 x198
-1 x60
<= 0

c_u_x366_:
-300 x159
+1 x21
<= 0

c_u_x367_:
-300 x160
+1 x22
<= 0

c_u_x368_:
-300 x161
+1 x23
<= 0

c_u_x369_:
-300 x162
+1 x24
<= 0

c_u_x370_:
-300 x163
+1 x25
<= 0

c_u_x371_:
-300 x164
+1 x26
<= 0

c_u_x372_:
-300 x165
+1 x27
<= 0

c_u_x373_:
-300 x166
+1 x28
<= 0

c_u_x374_:
-300 x167
+1 x29
<= 0

c_u_x375_:
-300 x168
+1 x30
<= 0

c_u_x376_:
-300 x169
+1 x31
<= 0

c_u_x377_:
-300 x170
+1 x32
<= 0

c_u_x378_:
-300 x171
+1 x33
<= 0

c_u_x379_:
-300 x172
+1 x34
<= 0

c_u_x380_:
-300 x173
+1 x35
<= 0

c_u_x381_:
-300 x174
+1 x36
<= 0

c_u_x382_:
-300 x175
+1 x37
<= 0

c_u_x383_:
-300 x176
+1 x38
<= 0

c_u_x384_:
-300 x177
+1 x39
<= 0

c_u_x385_:
-300 x178
+1 x40
<= 0

c_u_x386_:
-300 x179
+1 x41
<= 0

c_u_x387_:
-300 x180
+1 x42
<= 0

c_u_x388_:
-300 x181
+1 x43
<= 0

c_u_x389_:
-300 x182
+1 x44
<= 0

c_u_x390_:
-300 x183
+1 x45
<= 0

c_u_x391_:
-300 x184
+1 x46
<= 0

c_u_x392_:
-300 x185
+1 x47
<= 0

c_u_x393_:
-300 x186
+1 x48
<= 0

c_u_x394_:
-300 x187
+1 x49
<= 0

c_u_x395_:
-300 x188
+1 x50
<= 0

c_u_x396_:
-300 x189
+1 x51
<= 0

c_u_x397_:
-300 x190
+1 x52
<= 0

c_u_x398_:
-300 x191
+1 x53
<= 0

c_u_x399_:
-300 x192
+1 x54
<= 0

c_u_x400_:
-300 x193
+1 x55
<= 0

c_u_x401_:
-300 x194
+1 x56
<= 0

c_u_x402_:
-300 x195
+1 x57
<= 0

c_u_x403_:
-300 x196
+1 x58
<= 0

c_u_x404_:
-300 x197
+1 x59
<= 0

c_u_x405_:
-300 x198
+1 x60
<= 0

c_l_x406_:
+1 x1
>= 50

c_l_x407_:
+1 x2
>= 50

c_l_x408_:
+1 x3
>= 50

c_l_x409_:
+1 x4
>= 50

c_l_x410_:
+1 x5
>= 50

c_l_x411_:
+1 x6
>= 50

c_l_x412_:
+1 x7
>= 50

c_l_x413_:
+1 x8
>= 50

c_l_x414_:
+1 x9
>= 50

c_l_x415_:
+1 x10
>= 50

c_l_x416_:
+1 x11
>= 39

c_l_x417_:
+1 x12
>= 39

c_l_x418_:
+1 x13
>= 39

c_l_x419_:
+1 x14
>= 39

c_l_x420_:
+1 x15
>= 39

c_l_x421_:
+1 x16
>= 39

c_l_x422_:
+1 x17
>= 39

c_l_x423_:
+1 x18
>= 39

c_l_x424_:
+1 x19
>= 39

c_l_x425_:
+1 x20
>= 39

c_u_x426_:
+1 x1
<= 99

c_u_x427_:
+1 x2
<= 99

c_u_x428_:
+1 x3
<= 99

c_u_x429_:
+1 x4
<= 99

c_u_x430_:
+1 x5
<= 99

c_u_x431_:
+1 x6
<= 99

c_u_x432_:
+1 x7
<= 99

c_u_x433_:
+1 x8
<= 99

c_u_x434_:
+1 x9
<= 99

c_u_x435_:
+1 x10
<= 99

c_u_x436_:
+1 x11
<= 39

c_u_x437_:
+1 x12
<= 39

c_u_x438_:
+1 x13
<= 39

c_u_x439_:
+1 x14
<= 39

c_u_x440_:
+1 x15
<= 39

c_u_x441_:
+1 x16
<= 39

c_u_x442_:
+1 x17
<= 39

c_u_x443_:
+1 x18
<= 39

c_u_x444_:
+1 x19
<= 39

c_u_x445_:
+1 x20
<= 39

c_l_x446_:
+1 x61
>= 0

c_l_x447_:
+1 x62
>= 0

c_l_x448_:
+1 x63
>= 0

c_l_x449_:
+1 x64
>= 0

c_l_x450_:
+1 x65
>= 0

c_l_x451_:
+1 x66
>= 0

c_l_x452_:
+1 x67
>= 0

c_l_x453_:
+1 x68
>= 0

c_l_x454_:
+1 x69
>= 0

c_l_x455_:
+1 x70
>= 0

c_l_x456_:
+1 x71
>= 0

c_l_x457_:
+1 x72
>= 0

c_l_x458_:
+1 x73
>= 0

c_l_x459_:
+1 x74
>= 0

c_l_x460_:
+1 x75
>= 0

c_l_x461_:
+1 x76
>= 0

c_l_x462_:
+1 x77
>= 0

c_l_x463_:
+1 x78
>= 0

c_l_x464_:
+1 x79
>= 0

c_l_x465_:
+1 x80
>= 0

c_u_x466_:
+1 x61
<= 594

c_u_x467_:
+1 x62
<= 594

c_u_x468_:
+1 x63
<= 594

c_u_x469_:
+1 x64
<= 594

c_u_x470_:
+1 x65
<= 594

c_u_x471_:
+1 x66
<= 594

c_u_x472_:
+1 x67
<= 594

c_u_x473_:
+1 x68
<= 594

c_u_x474_:
+1 x69
<= 594

c_u_x475_:
+1 x70
<= 594

c_u_x476_:
+1 x71
<= 351

c_u_x477_:
+1 x72
<= 351

c_u_x478_:
+1 x73
<= 351

c_u_x479_:
+1 x74
<= 351

c_u_x480_:
+1 x75
<= 351

c_u_x481_:
+1 x76
<= 351

c_u_x482_:
+1 x77
<= 351

c_u_x483_:
+1 x78
<= 351

c_u_x484_:
+1 x79
<= 351

c_u_x485_:
+1 x80
<= 351

c_u_x486_:
+1 x81
<= 300

c_u_x487_:
+1 x83
<= 300

c_u_x488_:
+1 x85
<= 300

c_u_x489_:
+1 x87
<= 300

c_u_x490_:
+1 x89
<= 300

c_u_x491_:
+1 x91
<= 300

c_u_x492_:
+1 x93
<= 300

c_u_x493_:
+1 x95
<= 300

c_u_x494_:
+1 x97
<= 300

c_u_x495_:
+1 x99
<= 300

c_u_x496_:
+1 x82
<= 300

c_u_x497_:
+1 x84
<= 300

c_u_x498_:
+1 x86
<= 300

c_u_x499_:
+1 x88
<= 300

c_u_x500_:
+1 x90
<= 300

c_u_x501_:
+1 x92
<= 300

c_u_x502_:
+1 x94
<= 300

c_u_x503_:
+1 x96
<= 300

c_u_x504_:
+1 x98
<= 300

c_u_x505_:
+1 x100
<= 300

c_l_x506_:
+1 x81
>= 0

c_l_x507_:
+1 x83
>= 0

c_l_x508_:
+1 x85
>= 0

c_l_x509_:
+1 x87
>= 0

c_l_x510_:
+1 x89
>= 0

c_l_x511_:
+1 x91
>= 0

c_l_x512_:
+1 x93
>= 0

c_l_x513_:
+1 x95
>= 0

c_l_x514_:
+1 x97
>= 0

c_l_x515_:
+1 x99
>= 0

c_l_x516_:
+1 x82
>= 0

c_l_x517_:
+1 x84
>= 0

c_l_x518_:
+1 x86
>= 0

c_l_x519_:
+1 x88
>= 0

c_l_x520_:
+1 x90
>= 0

c_l_x521_:
+1 x92
>= 0

c_l_x522_:
+1 x94
>= 0

c_l_x523_:
+1 x96
>= 0

c_l_x524_:
+1 x98
>= 0

c_l_x525_:
+1 x100
>= 0

c_e_ONE_VAR_CONSTANT: 
ONE_VAR_CONSTANT = 1.0

bounds
   0 <= x1 <= 1e30
   0 <= x2 <= 1e30
   0 <= x3 <= 1e30
   0 <= x4 <= 1e30
   0 <= x5 <= 1e30
   0 <= x6 <= 1e30
   0 <= x7 <= 1e30
   0 <= x8 <= 1e30
   0 <= x9 <= 1e30
   0 <= x10 <= 1e30
   0 <= x11 <= 1e30
   0 <= x12 <= 1e30
   0 <= x13 <= 1e30
   0 <= x14 <= 1e30
   0 <= x15 <= 1e30
   0 <= x16 <= 1e30
   0 <= x17 <= 1e30
   0 <= x18 <= 1e30
   0 <= x19 <= 1e30
   0 <= x20 <= 1e30
   0 <= x21 <= 1e30
   0 <= x22 <= 1e30
   0 <= x23 <= 1e30
   0 <= x24 <= 1e30
   0 <= x25 <= 1e30
   0 <= x26 <= 1e30
   0 <= x27 <= 1e30
   0 <= x28 <= 1e30
   0 <= x29 <= 1e30
   0 <= x30 <= 1e30
   0 <= x31 <= 1e30
   0 <= x32 <= 1e30
   0 <= x33 <= 1e30
   0 <= x34 <= 1e30
   0 <= x35 <= 1e30
   0 <= x36 <= 1e30
   0 <= x37 <= 1e30
   0 <= x38 <= 1e30
   0 <= x39 <= 1e30
   0 <= x40 <= 1e30
   0 <= x41 <= 1e30
   0 <= x42 <= 1e30
   0 <= x43 <= 1e30
   0 <= x44 <= 1e30
   0 <= x45 <= 1e30
   0 <= x46 <= 1e30
   0 <= x47 <= 1e30
   0 <= x48 <= 1e30
   0 <= x49 <= 1e30
   0 <= x50 <= 1e30
   0 <= x51 <= 1e30
   0 <= x52 <= 1e30
   0 <= x53 <= 1e30
   0 <= x54 <= 1e30
   0 <= x55 <= 1e30
   0 <= x56 <= 1e30
   0 <= x57 <= 1e30
   0 <= x58 <= 1e30
   0 <= x59 <= 1e30
   0 <= x60 <= 1e30
   0 <= x61 <= 1e30
   0 <= x62 <= 1e30
   0 <= x63 <= 1e30
   0 <= x64 <= 1e30
   0 <= x65 <= 1e30
   0 <= x66 <= 1e30
   0 <= x67 <= 1e30
   0 <= x68 <= 1e30
   0 <= x69 <= 1e30
   0 <= x70 <= 1e30
   0 <= x71 <= 1e30
   0 <= x72 <= 1e30
   0 <= x73 <= 1e30
   0 <= x74 <= 1e30
   0 <= x75 <= 1e30
   0 <= x76 <= 1e30
   0 <= x77 <= 1e30
   0 <= x78 <= 1e30
   0 <= x79 <= 1e30
   0 <= x80 <= 1e30
   0 <= x81 <= 1e30
   0 <= x82 <= 1e30
   0 <= x83 <= 1e30
   0 <= x84 <= 1e30
   0 <= x85 <= 1e30
   0 <= x86 <= 1e30
   0 <= x87 <= 1e30
   0 <= x88 <= 1e30
   0 <= x89 <= 1e30
   0 <= x90 <= 1e30
   0 <= x91 <= 1e30
   0 <= x92 <= 1e30
   0 <= x93 <= 1e30
   0 <= x94 <= 1e30
   0 <= x95 <= 1e30
   0 <= x96 <= 1e30
   0 <= x97 <= 1e30
   0 <= x98 <= 1e30
   0 <= x99 <= 1e30
   0 <= x100 <= 1e30
   0 <= x101 <= 1
   0 <= x102 <= 1
   0 <= x103 <= 1
   0 <= x104 <= 1
   0 <= x105 <= 1
   0 <= x106 <= 1
   0 <= x107 <= 1
   0 <= x108 <= 1
   0 <= x109 <= 1
   0 <= x110 <= 1
   0 <= x111 <= 1
   0 <= x112 <= 1
   0 <= x113 <= 1
   0 <= x114 <= 1
   0 <= x115 <= 1
   0 <= x116 <= 1
   0 <= x117 <= 1
   0 <= x118 <= 1
   0 <= x119 <= 1
   0 <= x120 <= 1
   0 <= x121 <= 1
   0 <= x122 <= 1
   0 <= x123 <= 1
   0 <= x124 <= 1
   0 <= x125 <= 1
   0 <= x126 <= 1
   0 <= x127 <= 1
   0 <= x128 <= 1
   0 <= x129 <= 1
   0 <= x130 <= 1
   0 <= x131 <= 1
   0 <= x132 <= 1
   0 <= x133 <= 1
   0 <= x134 <= 1
   0 <= x135 <= 1
   0 <= x136 <= 1
   0 <= x137 <= 1
   0 <= x138 <= 1
   0 <= x139 <= 1
   0 <= x140 <= 1
   0 <= x141 <= 1
   0 <= x142 <= 1
   0 <= x143 <= 1
   0 <= x144 <= 1
   0 <= x145 <= 1
   0 <= x146 <= 1
   0 <= x147 <= 1
   0 <= x148 <= 1
   0 <= x149 <= 1
   0 <= x150 <= 1
   0 <= x151 <= 1
   0 <= x152 <= 1
   0 <= x153 <= 1
   0 <= x154 <= 1
   0 <= x155 <= 1
   0 <= x156 <= 1
   0 <= x157 <= 1
   0 <= x158 <= 1
   0 <= x159 <= 1
   0 <= x160 <= 1
   0 <= x161 <= 1
   0 <= x162 <= 1
   0 <= x163 <= 1
   0 <= x164 <= 1
   0 <= x165 <= 1
   0 <= x166 <= 1
   0 <= x167 <= 1
   0 <= x168 <= 1
   0 <= x169 <= 1
   0 <= x170 <= 1
   0 <= x171 <= 1
   0 <= x172 <= 1
   0 <= x173 <= 1
   0 <= x174 <= 1
   0 <= x175 <= 1
   0 <= x176 <= 1
   0 <= x177 <= 1
   0 <= x178 <= 1
   0 <= x179 <= 1
   0 <= x180 <= 1
   0 <= x181 <= 1
   0 <= x182 <= 1
   0 <= x183 <= 1
   0 <= x184 <= 1
   0 <= x185 <= 1
   0 <= x186 <= 1
   0 <= x187 <= 1
   0 <= x188 <= 1
   0 <= x189 <= 1
   0 <= x190 <= 1
   0 <= x191 <= 1
   0 <= x192 <= 1
   0 <= x193 <= 1
   0 <= x194 <= 1
   0 <= x195 <= 1
   0 <= x196 <= 1
   0 <= x197 <= 1
   0 <= x198 <= 1
binary
  x101
  x102
  x103
  x104
  x105
  x106
  x107
  x108
  x109
  x110
  x111
  x112
  x113
  x114
  x115
  x116
  x117
  x118
  x119
  x120
  x121
  x122
  x123
  x124
  x125
  x126
  x127
  x128
  x129
  x130
  x131
  x132
  x133
  x134
  x135
  x136
  x137
  x138
  x139
  x140
  x141
  x142
  x143
  x144
  x145
  x146
  x147
  x148
  x149
  x150
  x151
  x152
  x153
  x154
  x155
  x156
  x157
  x158
  x159
  x160
  x161
  x162
  x163
  x164
  x165
  x166
  x167
  x168
  x169
  x170
  x171
  x172
  x173
  x174
  x175
  x176
  x177
  x178
  x179
  x180
  x181
  x182
  x183
  x184
  x185
  x186
  x187
  x188
  x189
  x190
  x191
  x192
  x193
  x194
  x195
  x196
  x197
  x198
end
